N = 11;
H = 5;
T = 2;

avail = array3d(1..N, 1..H, 1..T, [4, 4, 5, 8, 2, 6, 4, 8, 2, 6, 4, 10, 10, 6, 2, 4, 0, 0, 9, 8, 2, 1, 8, 3, 4, 8, 4, 9, 8, 1, 3, 10, 8, 6, 3, 0, 4, 7, 10, 1, 8, 10, 8, 2, 1, 8, 9, 5, 1, 3, 5, 4, 8, 5, 8, 10, 7, 4, 1, 5, 3, 2, 4, 8, 10, 8, 3, 8, 1, 9, 1, 4, 9, 4, 3, 7, 6, 0, 4, 10, 9, 1, 9, 5, 1, 0, 9, 7, 4, 1, 9, 5, 7, 8, 3, 6, 5, 7, 1, 1, 6, 5, 7, 2, 2, 8, 1, 1, 4, 5]);

r = array2d(1..H, 1..T, [1, 5, 2, 2, 3, 1, 2, 3, 6, 4]);
